
  32    1
  10

   0   0   5 2 4 7 11 12 
   2   1   2 6 3 
   2   1   5 19 16 10 9 5 
   9   2   7 27 22 21 20 18 15 13 
   8   2   2 18 8 
   7   2   2 13 8 
   7   1   2 15 9 
  10   5   7 27 25 22 21 20 17 15 
   4   2   3 21 14 13 
  10   1   5 31 26 21 17 14 
   5   2   6 31 26 25 23 22 17 
   5   2   3 27 19 15 
   8   1   4 31 25 23 17 
   9   1   3 29 24 20 
   9   2   4 31 30 28 26 
   4   2   4 31 30 29 23 
   3   3   3 29 28 24 
   2   2   3 31 28 24 
   7   1   3 29 25 23 
   4   1   2 30 23 
   5   3   2 29 23 
   9   1   2 29 28 
   8   2   1 28 
   8   1   1 30 
   6   2   1 28 
  10   1   1 29 
   5   3   1 30 
   4   4   1 32
   9   3   1 32
   7   2   1 32
   9   4   1 32
   0   0   0 
